; benchmark generated from python API
(set-info :status unknown)
(declare-datatypes ((IntState 0)) (((Mk1 (val1 Int)) (Mk2 (val2 Int)))))
 (declare-fun c_main_~j~6 () Int)
(declare-fun c_main_~k~6 () Int)
(declare-fun c_main_~i~6 () Int)
(assert
 (let (($x166 (exists ((v_nnf_34_st IntState) (val!158 Int) )(let ((?x56 (val2 v_nnf_34_st)))
 (let (($x171 (<= ?x56 3)))
 (let (($x74 (and (<= (+ ?x56 3) c_main_~k~6) $x171 (<= c_main_~j~6 (+ (* 2 ?x56) 1)))))
 (let (($x52 (not (= v_nnf_34_st (Mk1 val!158)))))
 (and $x52 $x74))))))
 ))
 (let (($x37 (<= c_main_~i~6 2)))
 (let (($x81 (exists ((v_nnf_34 Int) )(let (($x67 (<= v_nnf_34 3)))
 (and (<= (+ v_nnf_34 3) c_main_~k~6) $x67 (<= c_main_~j~6 (+ (* 2 v_nnf_34) 1)))))
 ))
 (let (($x87 (<= c_main_~i~6 3)))
 (and (and $x87 $x37 $x81) (not (and $x37 $x166))))))))
(check-sat)
